<instance format="XCSP3" type="CSP">
  <variables>
    <var id="x0"> 3 4 11 </var>
    <var id="x1"> 0 4 10 11 </var>
    <var id="x2"> 3 7 10 11 13 </var>
    <var id="x3"> 0 4 10 11 </var>
    <var id="x4"> 7 10 </var>
    <var id="x5"> 0 4 7 10 </var>
    <var id="x6"> 7 13 </var>
    <var id="x7"> 1 4 7 10 11 </var>
    <var id="x8"> 1 10..12 </var>
    <var id="x9"> 1 12 </var>
    <var id="x10"> 4 10 11 14 </var>
    <var id="x11"> 1 4 12 14 </var>
    <var id="x12"> 4 7 10 14 </var>
    <var id="x13"> 1 11 </var>
    <var id="x14"> 2 8 </var>
    <var id="x15"> 2 8 10 11 14 </var>
    <var id="x16"> 2 7 10 11 </var>
    <var id="x17"> 7 14 </var>
    <var id="x18"> 2 7 8 10 14 </var>
    <var id="x19"> 2 7..9 14 </var>
    <var id="x20"> 8 9 11 </var>
    <var id="x21"> 4 11 14 </var>
    <var id="x22"> 1 2 8 </var>
    <var id="x23"> 2 4 8 11 14 </var>
    <var id="x24"> 1 2 4 14 </var>
    <var id="x25"> 4 8 11 14 </var>
    <var id="x26"> 1 2 7 8 14 </var>
    <var id="x27"> 2 4 7 </var>
    <var id="x28"> 5 6 12 14 </var>
    <var id="x29"> 6 8 12 </var>
    <var id="x30"> 2 8 14 </var>
    <var id="x31"> 9 14 </var>
    <var id="x32"> 2 5 6 8 14 </var>
    <var id="x33"> 2 5 12 </var>
    <var id="x34"> 2 8 9 14 </var>
    <var id="x35"> 1 8 11 13 </var>
    <var id="x36"> 1..3 11 13 </var>
    <var id="x37"> 0 13 </var>
    <var id="x38"> 0 2 11 </var>
    <var id="x39"> 0 3 13 </var>
    <var id="x40"> 1 2 8 13 </var>
    <var id="x41"> 0 1 8 11 13 </var>
    <var id="x42"> 12 </var>
    <var id="x43"> 1 10 12 </var>
    <var id="x44"> 1 2 7 10 13 </var>
    <var id="x45"> 0 7 10 13 </var>
    <var id="x46"> 0 2 7 10 12 </var>
    <var id="x47"> 1 2 7 13 </var>
    <var id="x48"> 0 1 13 </var>
    <var id="x49"> 1 7 10 </var>
    <var id="x50"> 1 6 10 </var>
    <var id="x51"> 0..2 6 </var>
    <var id="x52"> 0 10 14 </var>
    <var id="x53"> 0 7 10 14 </var>
    <var id="x54"> 0 2 7 10 </var>
    <var id="x55"> 1 2 7 14 </var>
    <var id="x56"> 4 8 10 13 </var>
    <var id="x57"> 3 4 12 14 </var>
    <var id="x58"> 3 4 12..14 </var>
    <var id="x59"> 4 10 13 14 </var>
    <var id="x60"> 10 12 14 </var>
    <var id="x61"> 4 10 12 </var>
    <var id="x62"> 8 13 </var>
    <var id="x63"> 1 6 10 11 </var>
    <var as="x10" id="x64"/>
    <var id="x65"> 1 4 14 </var>
    <var id="x66"> 1 7 10 11 </var>
    <var as="x10" id="x67"/>
    <var id="x68"> 7 10 11 14 </var>
    <var id="x69"> 4 6 7 14 </var>
    <var id="x70"> 1 8 13 </var>
    <var id="x71"> 5 6 12 14 </var>
    <var id="x72"> 1 12..14 </var>
    <var id="x73"> 8 12 14 </var>
    <var id="x74"> 6 13 14 </var>
    <var id="x75"> 1 5 6 8 14 </var>
    <var id="x76"> 5 12 </var>
    <var id="x77"> 6 11 12 </var>
    <var id="x78"> 0 2 6 12 </var>
    <var id="x79"> 0 4 11 12 </var>
    <var id="x80"> 0 4 7 </var>
    <var id="x81"> 0 2 7 11 12 </var>
    <var id="x82"> 0 4 6 7 </var>
    <var id="x83"> 0 2 4 7 12 </var>
    <var id="x84"> 1 4 8 10 13 </var>
    <var id="x85"> 4 </var>
    <var id="x86"> 0 4 8 10 </var>
    <var id="x87"> 1 4 13 </var>
    <var id="x88"> 0 10 </var>
    <var id="x89"> 1 8 10 </var>
    <var id="x90"> 0 1 8 9 13 </var>
    <var id="x91"> 4 8 11 13 </var>
    <var id="x92"> 3 8 11 </var>
    <var id="x93"> 0 2 8 13 </var>
    <var id="x94"> 2 3 11 13 </var>
    <var id="x95"> 0 4 8 11 </var>
    <var id="x96"> 0 3 4 13 </var>
    <var id="x97"> 2 5 8 </var>
    <var id="x98"> 2 8 13 </var>
    <var id="x99"> 0 6 12 13 </var>
    <var id="x100"> 3 12..14 </var>
    <var id="x101"> 3 10 13 </var>
    <var id="x102"> 0 10 12 14 </var>
    <var id="x103"> 0 3 6 13 14 </var>
    <var id="x104"> 6 10 14 </var>
    <var id="x105"> 0 6 13 </var>
  </variables>
  <constraints>
    <group>
      <allDifferent> %... </allDifferent>
      <args> x0 x1 x2 x3 x4 x5 x6 </args>
      <args> x7 x8 x9 x10 x11 x12 x13 </args>
      <args> x14 x15 x16 x17 x18 x19 x20 </args>
      <args> x21 x22 x23 x24 x25 x26 x27 </args>
      <args> x28 x29 x30 x31 x32 x33 x34 </args>
      <args> x35 x36 x37 x38 x39 x40 x41 </args>
      <args> x42 x43 x44 x45 x46 x47 x48 </args>
      <args> x49 x50 x51 x52 x53 x54 x55 </args>
      <args> x56 x57 x58 x59 x60 x61 x62 </args>
      <args> x63 x64 x65 x66 x67 x68 x69 </args>
      <args> x70 x71 x72 x73 x74 x75 x76 </args>
      <args> x77 x78 x79 x80 x81 x82 x83 </args>
      <args> x84 x85 x86 x87 x88 x89 x90 </args>
      <args> x91 x92 x93 x94 x95 x96 x97 x98 </args>
      <args> x99 x100 x101 x102 x103 x104 x105 </args>
      <args> x7 x35 x49 x56 x70 x84 x91 </args>
      <args> x0 x21 x28 x42 x57 x71 x85 </args>
      <args> x8 x29 x43 x50 x63 x77 x92 </args>
      <args> x9 x14 x22 x51 x78 x93 x99 </args>
      <args> x1 x10 x15 x23 x30 x64 x86 </args>
      <args> x11 x24 x58 x65 x72 x87 x100 </args>
      <args> x2 x16 x36 x44 x66 x94 x101 </args>
      <args> x3 x25 x52 x67 x73 x79 x95 </args>
      <args> x12 x31 x37 x45 x53 x59 x80 </args>
      <args> x38 x46 x60 x68 x81 x88 x102 </args>
      <args> x17 x39 x69 x74 x82 x96 x103 </args>
      <args> x4 x18 x26 x32 x75 x89 x97 x104 </args>
      <args> x5 x27 x33 x54 x61 x76 x83 </args>
      <args> x6 x19 x34 x40 x47 x55 x98 </args>
      <args> x13 x20 x41 x48 x62 x90 x105 </args>
    </group>
  </constraints>
</instance>

